row=9;
column=9;

Board=[|1,0,0,6,3,0,4,0,9|3,7,4,2,9,0,1,8,6|0,0,8,0,7,0,3,5,0|7,3,1,8,0,6,2,9,0|5,2,6,3,4,9,7,0,0|4,8,9,0,2,7,6,3,5|8,6,0,0,0,0,9,4,7|9,1,0,0,6,0,8,2,3|2,4,7,0,8,3,0,6,1|];
